p cnf 12 50 
8 12 -3 0
12 4 -2 0
11 -2 -7 0
-1 2 -6 0
3 11 8 0
-8 -11 -7 0
7 4 2 0
-9 -5 11 0
9 5 2 0
6 -2 4 0
-1 -9 -3 0
-12 2 11 0
-11 -8 5 0
-5 4 9 0
2 -8 7 0
11 1 8 0
-6 9 7 0
-4 1 -7 0
3 -2 4 0
-9 8 7 0
-7 -12 -5 0
3 12 -1 0
11 4 -7 0
11 1 9 0
-5 -7 -10 0
-9 -6 4 0
10 8 4 0
6 -12 -10 0
7 9 1 0
-4 -6 -7 0
9 8 2 0
2 9 10 0
-7 3 -10 0
-12 6 11 0
10 -5 -2 0
12 5 -4 0
-7 1 -2 0
10 -5 4 0
4 5 -2 0
-6 -5 -11 0
-10 -6 8 0
-10 -4 -9 0
-2 4 -8 0
-2 3 -8 0
-12 -11 7 0
-10 9 1 0
4 11 -3 0
-11 9 -10 0
-5 3 -7 0
-9 7 -6 0
